\ This file has been generated by DOcplex
\ ENCODING=ISO-8859-1
\Problem name: Qrandom23742_6.lp

Minimize
 obj: - 3588 x0 - 1794 x1 - 897 x2 - 3588 x3 - 1794 x4 - 897 x5 + [ 2048 x0^2
      + 2048 x0*x1 + 1024 x0*x2 + 4096 x0*x3 + 2048 x0*x4 + 1024 x0*x5
      + 512 x1^2 + 512 x1*x2 + 2048 x1*x3 + 1024 x1*x4 + 512 x1*x5 + 128 x2^2
      + 1024 x2*x3 + 512 x2*x4 + 256 x2*x5 + 2080 x3^2 + 2080 x3*x4 + 1040 x3*x5
      + 520 x4^2 + 520 x4*x5 + 130 x5^2 ]/2 + 3136
Subject To

Bounds
 0 <= x0 <= 1
 0 <= x1 <= 1
 0 <= x2 <= 1
 0 <= x3 <= 1
 0 <= x4 <= 1
 0 <= x5 <= 1

Binaries
 x0 x1 x2 x3 x4 x5
End
